RT is False
Default write of storage_offers_DA.csv just to have a file (but constraint should be inactive)
Reading model...
...model read.
creating competitive generators file...
...competitive generators recorded.
Loading data...
.. day-ahead data with real-time VRE data read.
Compiling instance...
...instance created.
Creating Offer Mitigation (model will solve as dispatch if TRUE)...
NOTE: storage offers will not be mitigated
...storage offer mitigation file created
Converting model to MPEC...
...converted
NOTE: initial MIP solve with only storage competitive to get feasible solution
Solving...

Welcome to IBM(R) ILOG(R) CPLEX(R) Interactive Optimizer 12.9.0.0
  with Simplex, Mixed Integer & Barrier Optimizers
5725-A06 5725-A29 5724-Y48 5724-Y49 5724-Y54 5724-Y55 5655-Y21
Copyright IBM Corp. 1988, 2019.  All Rights Reserved.

Type 'help' for a list of available commands.
Type 'help' followed by a command name for more
information on commands.

CPLEX> Logfile 'cplex.log' closed.
Logfile 'C:\Users\llavin\Desktop\test826\logs\tmp9fbqwdam.cplex.log' open.
CPLEX> New value for parallel optimization mode: -1
CPLEX> New value for emphasis for MIP optimization: 1
CPLEX> New value for mixed integer optimality gap tolerance: 0.01
CPLEX> New value for integrality tolerance: 1e-12
CPLEX> New value for deterministic time limit in ticks: 75000
CPLEX> Problem 'C:\Users\llavin\Desktop\test826\logs\tmpcf9d4ksz.pyomo.lp' read.
Read time = 0.22 sec. (13.92 ticks)
CPLEX> Problem name         : C:\Users\llavin\Desktop\test826\logs\tmpcf9d4ksz.pyomo.lp
Objective sense      : Maximize
Variables            :   53809  [Nneg: 1,  Box: 22004,  Free: 4464,
                                 Binary: 27340]
Objective nonzeros   :    9027
Linear constraints   :  123253  [Less: 41346,  Greater: 59096,  Equal: 22811]
  Nonzeros           :  293215
  RHS nonzeros       :   67489

Variables            : Min LB: -5000.000        Max UB: 1000000.       
Objective nonzeros   : Min   : 0.7833333        Max   : 2500.000       
Linear constraints   :
  Nonzeros           : Min   : 0.7833333        Max   : 1000000.       
  RHS nonzeros       : Min   : 0.7833333        Max   : 1000000.       
CPLEX> CPXPARAM_Parallel                                -1
CPXPARAM_Emphasis_MIP                            1
CPXPARAM_DetTimeLimit                            75000
CPXPARAM_MIP_Tolerances_MIPGap                   0.01
CPXPARAM_MIP_Tolerances_Integrality              9.9999999999999998e-13
Tried aggregator 4 times.
MIP Presolve eliminated 88788 rows and 19091 columns.
MIP Presolve added 3370 rows and 0 columns.
MIP Presolve modified 24725 coefficients.
Aggregator did 12957 substitutions.
Reduced MIP has 24878 rows, 21205 columns, and 71571 nonzeros.
Reduced MIP has 8378 binaries, 0 generals, 0 SOSs, and 0 indicators.
Presolve time = 0.34 sec. (194.97 ticks)
Probing fixed 418 vars, tightened 5236 bounds.
Probing time = 0.08 sec. (19.30 ticks)
Tried aggregator 2 times.
MIP Presolve eliminated 948 rows and 838 columns.
MIP Presolve modified 3032 coefficients.
Aggregator did 39 substitutions.
Reduced MIP has 23891 rows, 20328 columns, and 68720 nonzeros.
Reduced MIP has 7959 binaries, 0 generals, 0 SOSs, and 0 indicators.
Presolve time = 0.11 sec. (87.00 ticks)
Probing fixed 0 vars, tightened 281 bounds.
Probing time = 0.14 sec. (22.21 ticks)
Clique table members: 42928.
MIP emphasis: integer feasibility.
MIP search method: dynamic search.
Parallel mode: opportunistic, using up to 32 threads.
Root relaxation solution time = 0.53 sec. (802.77 ticks)

        Nodes                                         Cuts/
   Node  Left     Objective  IInf  Best Integer    Best Bound    ItCnt     Gap

      0     0       47.2666   256                     47.2666     6481         
      0     0       47.2666    10                    Cuts: 16     6488         
      0     0       47.2666    10                   Covers: 1     6489         
      0     0       47.2666     8                   Covers: 1     6491         
      0    27    infeasible                           Cuts: 3     6656         
Elapsed time = 3.64 sec. (1866.14 ticks, tree = 0.02 MB, solutions = 0)
    606   281     -756.6295    14                     46.2273     9079         
   1138   557    -1376.3945    11                     46.2273    16601         
   1731   803    -1048.5726    13                     27.7497    28010         
   2337   974    -1091.2847    16                     26.7152    33485         
   2840  1365     -702.7305    18                     26.7152    47258         
   3435  1526      -40.6868    10                     26.7152    53060         
   4025  1724    infeasible                           26.7152    57135         
   4478  1756    -2574.3593    21                     26.7152    58083         
   4881  2413    -1466.6298    15                     26.7152    69850         
   5849  2924    -8310.5079    14                     26.7152    78081         
Elapsed time = 17.95 sec. (4970.76 ticks, tree = 20.52 MB, solutions = 0)
   6768  3261     -288.7500     2                     26.7152    84300         
   7768  3279     -259.2329     3                     26.7152    84615         
*  8083  3830      integral     0     -406.5328       26.7152    99512  106.57%
   8768  3679     -750.1603    10     -406.5328       26.7152    94494  106.57%
   9534  3622     -438.6365     1     -406.5328       26.7152    91826  106.57%
   9945  4090     -790.9349    12     -406.5328       26.7152   103861  106.57%
* 10071  3942      integral     0     -346.6897       26.7152   103154  107.71%
  10192  3752     -207.4307     2     -346.6897       26.7152   103655  107.71%
  10251  4013     -270.6316     2     -346.6897       26.7152   102113  107.71%
  10253  1389    infeasible           -346.6897       26.7152   143239  107.71%

Clique cuts applied:  1
Cover cuts applied:  8
Implied bound cuts applied:  8
Flow cuts applied:  9
Mixed integer rounding cuts applied:  1
Gomory fractional cuts applied:  2

Root node processing (before b&c):
  Real time             =    2.58 sec. (1857.87 ticks)
Parallel b&c, 32 threads:
  Real time             =   32.11 sec. (11838.42 ticks)
  Sync time (average)   =    2.17 sec.
  Wait time (average)   =    0.09 sec.
                          ------------
Total (root+branch&cut) =   34.69 sec. (13696.29 ticks)

Solution pool: 2 solutions saved.

MIP - Integer optimal solution:  Objective = -3.4668970009e+02
Solution time =   34.72 sec.  Iterations = 143861  Nodes = 10362
Deterministic time = 13696.44 ticks  (394.51 ticks/sec)

CPLEX> Incumbent solution written to file 'C:\Users\llavin\Desktop\test826\logs\tmpo4fl4c14.cplex.sol'.
CPLEX> NOTE: no warmstart specified for MIP iteration, default behavior is true
NOTE: resolving with all competitive generators using storage-only solution to warmstart
Solving...

Welcome to IBM(R) ILOG(R) CPLEX(R) Interactive Optimizer 12.9.0.0
  with Simplex, Mixed Integer & Barrier Optimizers
5725-A06 5725-A29 5724-Y48 5724-Y49 5724-Y54 5724-Y55 5655-Y21
Copyright IBM Corp. 1988, 2019.  All Rights Reserved.

Type 'help' for a list of available commands.
Type 'help' followed by a command name for more
information on commands.

CPLEX> Logfile 'cplex.log' closed.
Logfile 'C:\Users\llavin\Desktop\test826\logs\tmpuo2fu2l9.cplex.log' open.
CPLEX> New value for parallel optimization mode: -1
CPLEX> New value for emphasis for MIP optimization: 1
CPLEX> New value for mixed integer optimality gap tolerance: 0.01
CPLEX> New value for integrality tolerance: 1e-12
CPLEX> New value for deterministic time limit in ticks: 75000
CPLEX> Problem 'C:\Users\llavin\Desktop\test826\logs\tmp08_5gd6t.pyomo.lp' read.
Read time = 0.23 sec. (13.94 ticks)
CPLEX> MIP start file 'C:\Users\llavin\Desktop\test826\logs\tmpee8_6ovw.cplex.mst' read.
CPLEX> Problem name         : C:\Users\llavin\Desktop\test826\logs\tmp08_5gd6t.pyomo.lp
Objective sense      : Maximize
Variables            :   54529  [Nneg: 1,  Box: 22724,  Free: 4464,
                                 Binary: 27340]
Objective nonzeros   :    9723
Linear constraints   :  123253  [Less: 41346,  Greater: 59096,  Equal: 22811]
  Nonzeros           :  293215
  RHS nonzeros       :   67489

Variables            : Min LB: -5000.000        Max UB: 1000000.       
Objective nonzeros   : Min   : 0.7833333        Max   : 2500.000       
Linear constraints   :
  Nonzeros           : Min   : 0.7833333        Max   : 1000000.       
  RHS nonzeros       : Min   : 0.7833333        Max   : 1000000.       
CPLEX> CPXPARAM_Parallel                                -1
CPXPARAM_Emphasis_MIP                            1
CPXPARAM_DetTimeLimit                            75000
CPXPARAM_MIP_Tolerances_MIPGap                   0.01
CPXPARAM_MIP_Tolerances_Integrality              9.9999999999999998e-13
Warning:  No solution found from 1 MIP starts.
Retaining values of one MIP start for possible repair.
Tried aggregator 4 times.
MIP Presolve eliminated 88788 rows and 19811 columns.
MIP Presolve added 3370 rows and 0 columns.
MIP Presolve modified 24725 coefficients.
Aggregator did 12957 substitutions.
Reduced MIP has 24878 rows, 21205 columns, and 71571 nonzeros.
Reduced MIP has 8378 binaries, 0 generals, 0 SOSs, and 0 indicators.
Presolve time = 0.33 sec. (195.39 ticks)
Probing fixed 418 vars, tightened 5236 bounds.
Probing time = 0.06 sec. (19.30 ticks)
Tried aggregator 2 times.
MIP Presolve eliminated 948 rows and 838 columns.
MIP Presolve modified 3032 coefficients.
Aggregator did 39 substitutions.
Reduced MIP has 23891 rows, 20328 columns, and 68720 nonzeros.
Reduced MIP has 7959 binaries, 0 generals, 0 SOSs, and 0 indicators.
Presolve time = 0.11 sec. (87.01 ticks)
Probing fixed 0 vars, tightened 281 bounds.
Probing time = 0.13 sec. (22.21 ticks)
Clique table members: 42928.
MIP emphasis: integer feasibility.
MIP search method: dynamic search.
Parallel mode: opportunistic, using up to 32 threads.
Root relaxation solution time = 0.55 sec. (805.81 ticks)

        Nodes                                         Cuts/
   Node  Left     Objective  IInf  Best Integer    Best Bound    ItCnt     Gap

      0     0    12491.9254   282                  12491.9254     6794         
      0     0    12491.9254    22                    Cuts: 40     6811         
      0     0    12491.9254    20                     Cuts: 6     6816         
      0     0    12491.9254    20                     Cuts: 5     6818         
Repair heuristic found nothing.
      0    22    infeasible                         Covers: 1     6930         
Elapsed time = 4.09 sec. (2242.16 ticks, tree = 0.02 MB, solutions = 0)
*   471+  277                        12026.4750    12488.9022             3.85%
    945   609    12253.4127    12    12026.4750    12488.9022    14029    3.85%
   1818  1009    12221.6916     2    12026.4750    12487.5193    16423    3.83%
   2607  1355    12196.1355     2    12026.4750    12487.5193    18954    3.83%
   3431  1896    12174.8459     7    12026.4750    12487.5193    22673    3.83%
   4229  2140    infeasible          12026.4750    12487.5193    24849    3.83%
   5117  2150    12420.0779    12    12121.5247    12487.5193    29199    3.02%
   6030  2835    12218.7110     3    12121.5247    12487.5193    33928    3.02%
   6895  2666    12215.9354    10    12121.5247    12487.5193    33238    3.02%
   8598  4402    infeasible          12121.5247    12487.5193    50303    3.02%
Elapsed time = 20.69 sec. (6407.17 ticks, tree = 43.11 MB, solutions = 3)
  12542  1382    12374.4201     4    12121.5247    12487.5193    67046    3.02%
  15607  1714    12254.2732    11    12121.5247    12486.5496    91985    3.01%

GUB cover cuts applied:  1
Cover cuts applied:  8
Implied bound cuts applied:  8
Flow cuts applied:  11
Mixed integer rounding cuts applied:  4
Gomory fractional cuts applied:  5

Root node processing (before b&c):
  Real time             =    3.11 sec. (2233.95 ticks)
Parallel b&c, 32 threads:
  Real time             =   25.61 sec. (7019.99 ticks)
  Sync time (average)   =    1.54 sec.
  Wait time (average)   =    0.17 sec.
                          ------------
Total (root+branch&cut) =   28.72 sec. (9253.94 ticks)

Solution pool: 3 solutions saved.

MIP - Integer optimal, tolerance (0.01/1e-06):  Objective =  1.2121524731e+04
Current MIP best bound =  1.2242577780e+04 (gap = 121.053, 1.00%)
Solution time =   28.72 sec.  Iterations = 107955  Nodes = 18170 (922)
Deterministic time = 9254.09 ticks  (322.23 ticks/sec)

CPLEX> Incumbent solution written to file 'C:\Users\llavin\Desktop\test826\logs\tmppu7wg0yb.cplex.sol'.
CPLEX> Exporting results... 
